33D32945 STP File, STP Format Version 1.0

SECTION Comments
Name "edge_n12_d3_s4"
Problem "Euclidean Steiner Tree Problem"
Remark "Generated with STPGenerator. 3 dimensions."
END

SECTION Graph
Nodes 12
END

SECTION Coordinates
DDD 0 0.9164578756 0.9164578756 0.9164578756
DDD 1 0.1339819669 0.1339819669 0.1339819669
DDD 2 0.1912108968 0.1912108968 0.1912108968
DDD 3 0.2600808285 0.2600808285 0.2600808285
DDD 4 0.2142811954 0.2142811954 0.2142811954
DDD 5 0.3601613163 0.3601613163 0.3601613163
DDD 6 0.4198029756 0.4198029756 0.4198029756
DDD 7 0.6540782580 0.6540782580 0.6540782580
DDD 8 0.1943656375 0.1943656375 0.1943656375
DDD 9 0.3097259371 0.3097259371 0.3097259371
DDD 10 0.5068725648 0.5068725648 0.5068725648
DDD 11 0.1146662767 0.1146662767 0.1146662767
END
